c preprocessed version of 1l9l_graph, 70 vertices, 697 edges
p td 70 697
68 69
67 69
67 68
66 69
66 68
66 67
65 69
65 68
65 67
65 66
64 69
64 67
64 66
64 65
63 69
63 66
63 65
63 64
62 69
62 65
62 64
62 63
61 69
61 66
61 65
61 64
61 63
61 62
60 67
60 66
60 65
60 64
60 63
60 62
60 61
59 65
59 64
59 61
59 60
58 67
58 66
58 65
58 64
58 61
58 60
58 59
57 65
57 60
57 59
57 58
56 65
56 62
56 61
56 60
56 59
56 58
56 57
55 68
55 67
55 66
55 65
55 64
55 62
55 61
55 60
55 59
55 58
55 57
55 56
54 67
54 65
54 64
54 60
54 58
54 57
54 56
54 55
53 65
53 58
53 57
53 56
53 55
53 54
52 68
52 67
52 65
52 62
52 60
52 57
52 56
52 55
52 54
52 53
51 68
51 67
51 66
51 65
51 64
51 60
51 58
51 55
51 54
51 53
51 52
50 68
50 67
50 58
50 55
50 54
50 53
50 52
50 51
49 56
49 54
49 53
49 52
49 51
49 50
48 68
48 67
48 65
48 56
48 55
48 53
48 52
48 51
48 50
48 49
47 68
47 67
47 52
47 51
47 50
47 49
47 48
46 49
46 48
46 47
45 68
45 65
45 56
45 53
45 52
45 50
45 49
45 48
45 47
45 46
44 68
44 67
44 65
44 56
44 53
44 52
44 51
44 49
44 48
44 47
44 46
44 45
43 48
43 47
43 46
43 45
43 44
42 49
42 46
42 45
42 44
42 43
41 68
41 52
41 48
41 47
41 45
41 44
41 43
41 42
40 46
40 44
40 43
40 42
40 41
39 45
39 42
39 41
39 40
38 44
38 42
38 41
38 40
38 39
37 44
37 43
37 41
37 40
37 39
37 38
36 43
36 42
36 41
36 40
36 39
36 38
36 37
35 41
35 40
35 39
35 38
35 37
35 36
34 41
34 39
34 38
34 37
34 36
34 35
33 39
33 38
33 35
33 34
32 46
32 45
32 42
32 40
32 39
32 36
32 34
32 33
31 65
31 56
31 53
31 52
31 49
31 48
31 45
31 44
31 42
31 41
31 38
31 34
31 33
31 32
30 45
30 42
30 33
30 32
30 31
29 53
29 49
29 46
29 45
29 42
29 32
29 31
29 30
28 65
28 57
28 56
28 54
28 53
28 52
28 50
28 49
28 48
28 46
28 45
28 44
28 42
28 32
28 31
28 30
28 29
27 65
27 56
27 53
27 52
27 49
27 45
27 33
27 31
27 30
27 29
27 28
26 56
26 53
26 32
26 31
26 30
26 29
26 28
26 27
25 57
25 56
25 54
25 53
25 52
25 50
25 49
25 45
25 29
25 28
25 27
25 26
24 65
24 59
24 57
24 56
24 55
24 54
24 53
24 52
24 49
24 45
24 31
24 28
24 27
24 26
24 25
23 56
23 53
23 30
23 27
23 26
23 25
23 24
22 57
22 53
22 29
22 27
22 26
22 25
22 24
22 23
21 58
21 57
21 54
21 53
21 50
21 49
21 28
21 26
21 25
21 24
21 23
21 22
20 59
20 57
20 56
20 53
20 26
20 25
20 24
20 23
20 22
20 21
19 65
19 62
19 60
19 59
19 58
19 57
19 56
19 55
19 53
19 52
19 31
19 28
19 27
19 25
19 24
19 23
19 21
19 20
18 59
18 57
18 56
18 24
18 23
18 22
18 21
18 20
18 19
17 56
17 27
17 24
17 23
17 20
17 19
17 18
16 65
16 62
16 59
16 57
16 56
16 53
16 52
16 45
16 31
16 30
16 28
16 27
16 26
16 25
16 24
16 23
16 22
16 20
16 19
16 18
16 17
15 56
15 52
15 45
15 33
15 32
15 31
15 30
15 29
15 28
15 27
15 26
15 24
15 23
15 19
15 17
15 16
14 62
14 56
14 33
14 31
14 30
14 27
14 19
14 17
14 16
14 15
13 65
13 62
13 61
13 60
13 59
13 57
13 56
13 55
13 52
13 31
13 28
13 27
13 24
13 19
13 18
13 17
13 16
13 15
13 14
12 65
12 62
12 60
12 57
12 56
12 55
12 53
12 52
12 51
12 49
12 48
12 45
12 44
12 31
12 30
12 29
12 28
12 27
12 25
12 24
12 23
12 21
12 19
12 16
12 15
12 14
12 13
11 62
11 56
11 52
11 45
11 44
11 41
11 38
11 34
11 33
11 31
11 30
11 28
11 27
11 24
11 16
11 15
11 14
11 13
11 12
10 65
10 63
10 62
10 61
10 56
10 31
10 14
10 13
10 12
10 11
9 68
9 67
9 65
9 64
9 63
9 62
9 61
9 60
9 59
9 58
9 56
9 55
9 54
9 53
9 52
9 51
9 49
9 48
9 45
9 44
9 31
9 28
9 27
9 24
9 19
9 16
9 14
9 13
9 12
9 11
9 10
8 68
8 65
8 62
8 56
8 53
8 52
8 51
8 49
8 48
8 47
8 45
8 44
8 42
8 41
8 38
8 34
8 33
8 31
8 30
8 28
8 27
8 25
8 24
8 19
8 16
8 15
8 13
8 12
8 11
8 10
8 9
7 62
7 52
7 45
7 44
7 41
7 38
7 37
7 35
7 34
7 33
7 31
7 15
7 14
7 12
7 11
7 10
7 9
7 8
6 69
6 68
6 65
6 63
6 62
6 61
6 56
6 52
6 44
6 13
6 11
6 10
6 9
6 8
6 7
5 68
5 65
5 52
5 51
5 49
5 48
5 47
5 45
5 44
5 43
5 41
5 40
5 38
5 37
5 34
5 31
5 28
5 12
5 11
5 9
5 8
5 7
5 6
4 69
4 63
4 62
4 44
4 41
4 38
4 37
4 34
4 10
4 8
4 7
4 6
4 5
3 69
3 68
3 66
3 65
3 63
3 62
3 48
3 44
3 6
3 5
3 4
2 69
2 68
2 67
2 66
2 65
2 52
2 51
2 48
2 47
2 45
2 44
2 43
2 41
2 9
2 8
2 5
2 4
2 3
1 68
1 48
1 47
1 44
1 43
1 41
1 40
1 38
1 37
1 34
1 8
1 7
1 5
1 4
1 3
1 2
0 69
0 68
0 41
0 6
0 5
0 4
0 3
0 2
0 1
